s td 16 65 80
b 1 1 2 4 10 11 12 14 15 16 17 18 21 23 24 25 30 31 33 34 36 39 41 42 43 45 47 48 50 51 53 54 55 56 58 59 60 62 65 66 68 69 70 71 72 76 77 78 80
b 2 1 3 4 5 6 7 8 9 10 11 12 14 15 16 17 18 19 21 22 23 24 25 26 27 29 30 31 32 33 34 36 38 39 41 42 43 44 45 46 47 48 49 50 51 53 54 55 56 58 59 60 62 64 65 66 68 69 70 71 72 73 76 77 78 80
b 3 1 3 4 5 6 7 8 9 10 11 12 14 15 17 18 19 21 22 23 24 25 26 27 29 30 31 32 33 34 36 38 39 41 42 43 44 47 48 49 50 51 53 54 55 56 58 59 60 62 64 65 66 68 69 70 71 72 73 75 76 77 78 80
b 4 1 3 4 5 6 7 8 9 10 11 12 14 15 17 18 19 21 22 23 24 25 26 27 29 30 31 32 33 34 35 36 38 39 41 42 43 44 47 48 49 50 51 53 54 55 56 58 60 62 64 65 66 68 69 71 72 73 75 76 77 78 80
b 5 1 5 6 8 9 10 11 12 13 15 17 19 21 22 23 24 25 26 27 29 30 31 34 35 36 38 41 42 43 47 48 49 50 51 54 55 56 58 62 64 66 68 69 71 72 73 75 76 77 78 80
b 6 1 6 8 11 12 13 15 19 21 23 25 26 29 30 34 36 38 43 48 54 55 58 62 64 68 69 72 73 74 75 76 77 78 80
b 7 1 3 4 5 6 7 11 16 17 18 19 20 23 27 33 36 38 41 43 44 45 46 49 50 53 54 58 64 68 69 70 71 72 76 78
b 8 1 3 4 5 6 7 8 9 10 11 12 14 15 16 17 18 19 21 22 24 25 26 27 29 30 31 32 33 34 36 38 39 41 42 43 44 45 46 47 48 49 50 51 52 53 54 55 56 58 59 60 62 64 65 66 68 69 70 71 72 73 76 77 78 80
b 9 1 4 5 6 7 8 9 10 11 12 14 15 16 17 18 19 21 22 24 25 26 27 28 29 30 31 32 33 34 36 38 39 41 42 43 44 45 46 47 48 49 50 51 52 53 54 55 56 58 59 60 62 64 65 66 68 69 70 71 72 73 76 77 78 80
b 10 6 7 10 11 14 15 16 17 18 19 22 25 28 29 30 31 32 36 37 41 46 49 51 54 55 59 62 64 66 68 70 73 78
b 11 1 4 5 6 7 8 9 10 11 14 15 16 17 18 19 21 22 24 25 26 27 28 29 30 31 32 33 34 36 38 39 41 42 43 44 45 46 47 48 49 50 51 52 54 55 56 57 58 59 60 62 64 65 66 68 69 70 71 72 76 77 78
b 12 4 5 6 7 8 9 10 11 14 15 16 17 18 19 21 22 24 25 27 28 29 31 32 33 34 36 38 39 41 42 44 45 46 47 48 49 50 51 52 54 55 56 57 58 59 60 62 64 65 67 68 69 70 71 72 76 77 78
b 13 4 5 6 7 8 9 11 14 15 16 17 18 19 21 22 24 27 28 29 31 32 33 34 38 39 41 42 44 45 46 47 48 50 51 52 55 56 57 58 59 60 62 63 67 69 71 72 76 77 78
b 14 5 7 8 11 14 15 17 22 24 31 32 38 41 44 46 48 50 51 52 57 59 61 62 63 67 69 72 76 78
b 15 1 3 7 8 9 10 11 12 14 15 16 21 22 24 27 29 30 32 33 34 36 39 40 41 44 45 47 48 51 52 53 55 56 58 60 64 72 73 76 80
b 16 1 2 4 10 11 12 14 15 18 21 23 24 25 30 31 33 34 36 41 42 47 54 55 58 62 65 66 69 70 72 76 77 78 79 80
1 2
1 16
2 3
2 7
2 8
3 4
4 5
5 6
8 9
8 15
9 10
9 11
11 12
12 13
13 14
